
Gurobi 10.0.3 (linux64, gurobi_cl) logging started Thu Nov  9 11:49:04 2023

Set parameter Username
Set parameter TimeLimit to value 3600
Set parameter LogFile to value "RCPSP_1214.log"
Set parameter Threads to value 32
Academic license - for non-commercial use only - expires 2024-11-06
Using license file /home/jrivera6/gurobi-licenses/v1003/compute-0-36/gurobi.lic

Gurobi Optimizer version 10.0.3 build v10.0.3rc0 (linux64)
Copyright (c) 2023, Gurobi Optimization, LLC

Read MPS format model from file RCPSP_1214.mps
Reading time = 0.06 seconds
RCPSP_1214: 42947 rows, 17020 columns, 151052 nonzeros

CPU model: Intel(R) Xeon(R) Gold 6130 CPU @ 2.10GHz, instruction set [SSE2|AVX|AVX2|AVX512]
Thread count: 32 physical cores, 32 logical processors, using up to 32 threads

Optimize a model with 42947 rows, 17020 columns and 151052 nonzeros
Model fingerprint: 0xc9744860
Variable types: 92 continuous, 16928 integer (16928 binary)
Coefficient statistics:
  Matrix range     [1e+00, 5e+02]
  Objective range  [1e+00, 1e+00]
  Bounds range     [1e+00, 1e+00]
  RHS range        [1e+00, 6e+02]
Presolve removed 8099 rows and 2137 columns
Presolve time: 4.81s
Presolved: 34848 rows, 14883 columns, 127949 nonzeros
Variable types: 91 continuous, 14792 integer (14792 binary)

Deterministic concurrent LP optimizer: primal and dual simplex (primal and dual model)
Showing first log only...

Root relaxation presolved: 34848 rows, 14883 columns, 127949 nonzeros


Root simplex log...

Iteration    Objective       Primal Inf.    Dual Inf.      Time
       0    9.6056599e+01   5.542457e-03   2.197559e+08      6s
    1971    9.6000000e+01   0.000000e+00   0.000000e+00      6s
Concurrent spin time: 0.98s

Solved with dual simplex (dual model)

Root relaxation: objective 9.600000e+01, 16942 iterations, 2.03 seconds (0.15 work units)
Total elapsed time = 10.59s

    Nodes    |    Current Node    |     Objective Bounds      |     Work
 Expl Unexpl |  Obj  Depth IntInf | Incumbent    BestBd   Gap | It/Node Time

     0     0   96.00000    0   54          -   96.00000      -     -   12s
     0     0   96.00000    0  521          -   96.00000      -     -   28s
     0     0   96.00000    0  474          -   96.00000      -     -   29s
     0     0   96.00000    0  472          -   96.00000      -     -   29s
     0     0   96.00000    0   90          -   96.00000      -     -   40s
     0     0   96.00000    0   88          -   96.00000      -     -   40s
     0     0   96.00000    0  177          -   96.00000      -     -   41s
     0     0   96.00000    0   23          -   96.00000      -     -   50s
     0     0   96.00000    0   38          -   96.00000      -     -   54s
     0     0   96.00000    0   56          -   96.00000      -     -   61s
     0     0   96.00000    0  107          -   96.00000      -     -   62s
     0     0   96.00000    0   22          -   96.00000      -     -   69s
     0     0   96.00000    0  168          -   96.00000      -     -   70s
     0     0   96.00000    0   33          -   96.00000      -     -   79s
     0     0   96.00000    0   60          -   96.00000      -     -   85s
     0     0   96.00000    0   18          -   96.00000      -     -   92s
     0     0   96.00000    0   56          -   96.00000      -     -   92s
     0     0   96.00000    0   41          -   96.00000      -     -   97s
H    0     0                     546.0000000   96.00000  82.4%     -   99s
     0     0   96.00000    0   31  546.00000   96.00000  82.4%     -  101s
H    0     0                     456.0000000   96.00000  78.9%     -  109s
H    0     2                     405.0000000   96.00000  76.3%     -  151s
     0     2   96.00000    0   15  405.00000   96.00000  76.3%     -  151s
     3     8   96.00000    2   15  405.00000   96.00000  76.3%   321  159s
     7    15   96.00000    3   18  405.00000   96.00000  76.3%   186  163s
    15    28   96.00000    4  116  405.00000   96.00000  76.3%   143  171s
H   30    53                     364.0000000   96.00000  73.6%   143  219s
H   31    53                     355.0000000   96.00000  73.0%   148  219s
H   42    53                     353.0000000   96.00000  72.8%   163  219s
H   45    53                     350.9999999   96.00000  72.6%   154  219s
H   53    53                     347.0000000   96.00000  72.3%   154  220s
H   56    53                     345.0000000   96.00000  72.2%   174  220s
    58    65   96.00000    6  225  345.00000   96.00000  72.2%   174  326s
H   67    65                     305.0000000   96.00000  68.5%   187  326s
H   72    65                     270.0000000   96.00000  64.4%   181  326s
    90    84   96.00000    7  121  270.00000   96.00000  64.4%   184  391s
   122   110   96.00000    8  132  270.00000   96.00000  64.4%   167  397s
   154   136   96.00000    9  132  270.00000   96.00000  64.4%   155  403s
   186   174   96.00000   10   83  270.00000   96.00000  64.4%   149  431s
   230   220   96.00000   11   45  270.00000   96.00000  64.4%   269  446s
   283   268   98.00000   13  226  270.00000   96.00000  64.4%   234  452s
   337   323   98.00000   15  222  270.00000   96.00000  64.4%   201  462s
   400   446   98.00000   17  220  270.00000   96.00000  64.4%   175  485s
   549   561   98.00000   20  210  270.00000   96.00000  64.4%   146  512s
   677   784   98.00000   22  248  270.00000   96.00000  64.4%   132  535s
   925  1082   98.00000   27  272  270.00000   96.00000  64.4%   106  624s
   937  1082   96.00000   29  209  270.00000   96.00000  64.4%   106  693s
   944  1082   96.00000   26  174  270.00000   96.00000  64.4%   106  723s
H 1292  1110                     222.0000000   96.00000  56.8%  99.1 1530s
H 1294  1110                     220.0000000   96.00000  56.4%  99.2 1530s
  1324  1518   96.00000   20  122  220.00000   96.00000  56.4%   102 1796s
  1774  2150   96.00000   31   28  220.00000   96.00000  56.4%  89.7 3616s

Cutting planes:
  Gomory: 15
  Cover: 105
  Implied bound: 364
  MIR: 441
  StrongCG: 6
  RLT: 459
  Relax-and-lift: 148

Explored 2517 nodes (256226 simplex iterations) in 4272.50 seconds (41.69 work units)
Thread count was 32 (of 32 available processors)

Solution count 10: 220 222 270 ... 364

Time limit reached
Best objective 2.199999999998e+02, best bound 9.600000000000e+01, gap 56.3636%

Wrote result file 'RCPSP_1214.sol'

